
******************************************************************************
This program contains Ipopt, a library for large-scale nonlinear optimization.
 Ipopt is released as open source code under the Eclipse Public License (EPL).
         For more information visit http://projects.coin-or.org/Ipopt
******************************************************************************

This is Ipopt version 3.12.6, running with linear solver ma57.

Number of nonzeros in equality constraint Jacobian...:       63
Number of nonzeros in inequality constraint Jacobian.:       18
Number of nonzeros in Lagrangian Hessian.............:       91

Reallocating memory for MA57: lfact (1602)
Total number of variables............................:       29
                     variables with only lower bounds:        0
                variables with lower and upper bounds:        7
                     variables with only upper bounds:        0
Total number of equality constraints.................:       17
Total number of inequality constraints...............:        6
        inequality constraints with only lower bounds:        0
   inequality constraints with lower and upper bounds:        0
        inequality constraints with only upper bounds:        6

iter    objective    inf_pr   inf_du lg(mu)  ||d||  lg(rg) alpha_du alpha_pr  ls
   0  5.0000000e-01 4.98e+01 1.08e+00  -1.0 0.00e+00    -  0.00e+00 0.00e+00   0
   1  4.9999901e-03 4.88e+01 1.09e+00  -1.0 3.43e+01    -  9.55e-03 1.44e-02h  1
   2  6.2622075e-02 2.44e+01 6.09e+00  -1.0 1.18e+01    -  1.46e-02 1.00e+00f  1
   3  1.2380194e-01 1.40e+01 5.80e+01  -1.0 8.08e+00   0.0 1.28e-01 1.00e+00h  1
   4  9.8290200e-01 6.61e+00 1.06e+02  -1.0 2.12e+00   1.3 8.19e-02 5.96e-01h  1
   5  1.6898601e+00 5.28e+00 3.64e+01  -1.0 6.32e+00   0.9 4.15e-02 1.25e-01h  1
   6  2.2865499e+00 2.40e-01 1.95e+01  -1.0 7.41e-01   1.3 9.92e-01 1.00e+00h  1
   7  2.3008465e+00 4.72e-03 3.67e+00  -1.0 6.68e-02   1.7 1.00e+00 1.00e+00h  1
   8  2.3006186e+00 3.07e-04 5.70e-01  -1.0 3.38e-02   1.2 1.00e+00 1.00e+00f  1
   9  1.7145297e+00 1.77e+00 4.99e-01  -1.7 2.34e+01    -  1.30e-01 1.22e-01f  1
iter    objective    inf_pr   inf_du lg(mu)  ||d||  lg(rg) alpha_du alpha_pr  ls
  10  1.7714381e+00 1.60e-01 2.44e+00  -1.7 3.71e-01   0.7 4.46e-01 1.00e+00h  1
  11  1.7666756e+00 2.64e-03 1.25e-01  -1.7 4.54e-02   0.3 1.00e+00 1.00e+00h  1
  12  1.4559240e+00 2.01e+00 9.40e-02  -2.5 1.32e+00    -  5.14e-01 9.34e-01f  1
  13  1.5514237e+00 3.07e-01 4.82e-02  -2.5 5.02e-01    -  9.55e-01 1.00e+00h  1
  14  1.5699520e+00 5.39e-03 5.35e-02  -2.5 7.97e-02  -0.2 1.00e+00 1.00e+00h  1
  15  1.5706454e+00 6.37e-04 9.51e-03  -2.5 3.86e-02  -0.7 1.00e+00 1.00e+00h  1
  16  1.5640536e+00 5.14e-03 5.61e-03  -3.8 7.71e-02  -1.2 1.00e+00 1.00e+00h  1
  17  1.5617029e+00 3.34e-02 1.76e-03  -3.8 6.02e-01    -  1.00e+00 1.00e+00h  1
  18  1.5619740e+00 8.83e-01 1.36e-03  -3.8 4.37e+00    -  7.75e-01 2.50e-01h  3
  19  1.5620766e+00 7.77e-01 1.23e-03  -3.8 1.21e+00    -  1.00e+00 1.25e-01h  4
iter    objective    inf_pr   inf_du lg(mu)  ||d||  lg(rg) alpha_du alpha_pr  ls
  20  1.5620991e+00 7.54e-01 1.19e-03  -3.8 8.46e-01    -  1.00e+00 3.12e-02h  6
  21  1.5621046e+00 7.48e-01 1.19e-03  -3.8 7.88e-01    -  1.00e+00 7.81e-03h  8
  22  1.5621060e+00 7.46e-01 1.19e-03  -3.8 7.79e-01    -  1.00e+00 1.95e-03h 10
  23  1.5621066e+00 7.45e-01 1.18e-03  -3.8 7.76e-01    -  1.00e+00 9.77e-04h 11
  24  1.5628026e+00 2.97e-01 1.12e-04  -3.8 7.75e-01    -  1.00e+00 1.00e+00H  1
  25  1.5628022e+00 3.18e-01 1.13e-05  -3.8 4.62e-01    -  1.00e+00 1.00e+00h  1
  26  1.5628023e+00 1.28e-02 1.24e-06  -3.8 2.23e-01    -  1.00e+00 1.00e+00h  1
  27  1.5628023e+00 7.98e-05 9.71e-09  -3.8 8.37e-03    -  1.00e+00 1.00e+00h  1
  28  1.5625023e+00 2.81e-05 3.21e-06  -5.7 8.29e-03    -  1.00e+00 1.00e+00h  1
  29  1.5625037e+00 2.48e-08 6.41e-10  -5.7 1.15e-04    -  1.00e+00 1.00e+00h  1
iter    objective    inf_pr   inf_du lg(mu)  ||d||  lg(rg) alpha_du alpha_pr  ls
  30  1.5625000e+00 4.54e-09 5.23e-10  -8.6 1.05e-04    -  1.00e+00 1.00e+00h  1

Number of Iterations....: 30

                                   (scaled)                 (unscaled)
Objective...............:   1.5625000022870066e+00    1.5625000022870066e+00
Dual infeasibility......:   5.2312620358594176e-10    5.2312620358594176e-10
Constraint violation....:   4.5426977735019136e-09    4.5426977735019136e-09
Complementarity.........:   2.8258089120228508e-09    2.8258089120228508e-09
Overall NLP error.......:   4.5426977735019136e-09    4.5426977735019136e-09


Number of objective function evaluations             = 90
Number of objective gradient evaluations             = 31
Number of equality constraint evaluations            = 90
Number of inequality constraint evaluations          = 90
Number of equality constraint Jacobian evaluations   = 31
Number of inequality constraint Jacobian evaluations = 31
Number of Lagrangian Hessian evaluations             = 30
Total CPU secs in IPOPT (w/o function evaluations)   =      0.007
Total CPU secs in NLP function evaluations           =      0.003

EXIT: Optimal Solution Found.

************************ CUTEst statistics ************************


 Package used            :  IPOPT
 Problem                 :  DISC2     
 # variables             =              29
 # constraints           =              23
 # objective functions   =        0.1220000E+03
 # objective gradients   =        0.3200000E+02
 # objective Hessians    =        0.3100000E+02
 # Hessian-vector prdct  =        0.0000000E+00
 # constraints functions =        0.1230000E+03
 # constraints gradients =        0.3300000E+02
 # constraints Hessians  =        0.3100000E+02
 Exit code               =               0
 Final f                 =   0.1562500E+01
 Set up time             =            0.00 seconds
 Solve time              =            0.06 seconds


******************************************************************

System Time =       0.0140000004 s.
